NAME: tsp45_11
COMMENT: 45-tsp problem (Padberg/Rinaldi)
TYPE: TSP
DIMENSION: 45
EDGE_WEIGHT_TYPE : EUC_2D
NODE_COORD_SECTION
1 1 34
2 11 25
3 15 33
4 37 40
5 30 29
6 17 4
7 35 10
8 4 7
9 38 16
10 37 21
11 36 6
12 11 12
13 9 23
14 1 15
15 26 17
16 28 22
17 19 4
18 6 25
19 3 3
20 26 2
21 28 18
22 36 27
23 28 4
24 22 30
25 9 2
26 35 5
27 30 16
28 20 27
29 4 5
30 28 1
31 9 28
32 20 14
33 12 10
34 25 11
35 11 30
36 16 12
37 9 4
38 3 27
39 2 31
40 18 9
41 2 20
42 40 36
43 29 24
44 7 18
45 6 14
